n=20;
max_len=2;
digits_all=[1,2,3,4,5,6,7,8,9,1,0,1,1,1,2,1,3,1,4,1,5,1,6,1,7,1,8,1,9,2,0];
num_digits_all=31;
% missing number: 2
% missing_numbers = [18,11,16,14,13,3,4,6,19,20,1,12,8,10,5,7,15,17,9]
digits_missing=[1,8,1,1,1,6,1,4,1,3,3,4,6,1,9,2,0,1,1,2,8,1,0,5,7,1,5,1,7,9];
num_digits_missing=30;
number_candidates=[{1,18},{18,8},{1,11},{11,1},{11,1,16},{16,6},{1,14},{14,4},{1,13},{13,3},{3},{4},{6},{1,19},{19,9},{2,20},{20,1,11},{1,11},{11,1,12},{12,2},{8},{1,10},{10,5},{5},{7},{1,15},{15,5},{1,17},{17,7},{9}];
% Save as find_missing_number2_20_2.dzn

